(set-info :smt-lib-version 2.6)
(set-logic QF_BV)
(set-info :source |
            Generated by: Samuel Coward
            Generated on: 2025-08-12
            Generator: CIRCT
            Application: Datapath synthesis of digital circuits 
            Target solver: Bitwuzla
            Time limit: 300.0
            Benchmarks generated by the CIRCT tool to check correctness of lowering
            from word-level bitvector circuit to a gate-level netlist.
            Using compressor tree circuits proves challenging for SMT.|)
(set-info :license "https://creativecommons.org/licenses/by/4.0/")
(set-info :category "industrial")
(set-info :status unsat)

; solver scope 0
(declare-const tmp (_ BitVec 4))
(declare-const tmp_0 (_ BitVec 4))
(declare-const tmp_1 (_ BitVec 13))
(declare-const tmp_2 (_ BitVec 13))
(assert (let ((tmp_3 ((_ extract 0 0) tmp_2)))
        (let ((tmp_4 ((_ extract 0 0) tmp_1)))
        (let ((tmp_5 (bvand tmp_4 tmp_3)))
        (let ((tmp_6 (bvxor tmp_5 #b1)))
        (let ((tmp_7 (bvxor tmp_3 #b1)))
        (let ((tmp_8 (bvxor tmp_4 #b1)))
        (let ((tmp_9 (bvand tmp_8 tmp_7)))
        (let ((tmp_10 (bvxor tmp_9 #b1)))
        (let ((tmp_11 (bvand tmp_10 tmp_6)))
        (let ((tmp_12 ((_ extract 0 0) tmp)))
        (let ((tmp_13 ((_ extract 0 0) tmp_0)))
        (let ((tmp_14 (bvand tmp_13 tmp_12)))
        (let ((tmp_15 (bvand tmp_14 tmp_11)))
        (let ((tmp_16 (bvxor tmp_15 #b1)))
        (let ((tmp_17 (bvxor tmp_11 #b1)))
        (let ((tmp_18 (bvxor tmp_14 #b1)))
        (let ((tmp_19 (bvand tmp_18 tmp_17)))
        (let ((tmp_20 (bvxor tmp_19 #b1)))
        (let ((tmp_21 (bvand tmp_20 tmp_16)))
        (let ((tmp_22 ((_ extract 1 1) tmp_2)))
        (let ((tmp_23 ((_ extract 1 1) tmp_1)))
        (let ((tmp_24 (bvand tmp_23 tmp_22)))
        (let ((tmp_25 (bvxor tmp_24 #b1)))
        (let ((tmp_26 (bvxor tmp_22 #b1)))
        (let ((tmp_27 (bvxor tmp_23 #b1)))
        (let ((tmp_28 (bvand tmp_27 tmp_26)))
        (let ((tmp_29 (bvxor tmp_28 #b1)))
        (let ((tmp_30 (bvand tmp_29 tmp_25)))
        (let ((tmp_31 ((_ extract 1 1) tmp_0)))
        (let ((tmp_32 (bvand tmp_31 tmp_12)))
        (let ((tmp_33 ((_ extract 1 1) tmp)))
        (let ((tmp_34 (bvand tmp_13 tmp_33)))
        (let ((tmp_35 (bvand tmp_34 tmp_32)))
        (let ((tmp_36 (bvxor tmp_35 #b1)))
        (let ((tmp_37 (bvxor tmp_32 #b1)))
        (let ((tmp_38 (bvxor tmp_34 #b1)))
        (let ((tmp_39 (bvand tmp_38 tmp_37)))
        (let ((tmp_40 (bvxor tmp_39 #b1)))
        (let ((tmp_41 (bvand tmp_40 tmp_36)))
        (let ((tmp_42 (bvand tmp_41 tmp_30)))
        (let ((tmp_43 (bvxor tmp_42 #b1)))
        (let ((tmp_44 (bvxor tmp_30 #b1)))
        (let ((tmp_45 (bvxor tmp_41 #b1)))
        (let ((tmp_46 (bvand tmp_45 tmp_44)))
        (let ((tmp_47 (bvxor tmp_46 #b1)))
        (let ((tmp_48 (bvand tmp_47 tmp_43)))
        (let ((tmp_49 (bvand tmp_48 tmp_15)))
        (let ((tmp_50 (bvxor tmp_49 #b1)))
        (let ((tmp_51 (bvxor tmp_48 #b1)))
        (let ((tmp_52 (bvand tmp_51 tmp_16)))
        (let ((tmp_53 (bvxor tmp_52 #b1)))
        (let ((tmp_54 (bvand tmp_53 tmp_50)))
        (let ((tmp_55 (bvand tmp_54 tmp_5)))
        (let ((tmp_56 (bvxor tmp_55 #b1)))
        (let ((tmp_57 (bvxor tmp_54 #b1)))
        (let ((tmp_58 (bvand tmp_57 tmp_6)))
        (let ((tmp_59 (bvxor tmp_58 #b1)))
        (let ((tmp_60 (bvand tmp_59 tmp_56)))
        (let ((tmp_61 (bvand tmp_50 tmp_56)))
        (let ((tmp_62 (bvxor tmp_61 #b1)))
        (let ((tmp_63 ((_ extract 2 2) tmp_2)))
        (let ((tmp_64 ((_ extract 2 2) tmp_1)))
        (let ((tmp_65 (bvand tmp_64 tmp_63)))
        (let ((tmp_66 (bvxor tmp_65 #b1)))
        (let ((tmp_67 (bvxor tmp_63 #b1)))
        (let ((tmp_68 (bvxor tmp_64 #b1)))
        (let ((tmp_69 (bvand tmp_68 tmp_67)))
        (let ((tmp_70 (bvxor tmp_69 #b1)))
        (let ((tmp_71 (bvand tmp_70 tmp_66)))
        (let ((tmp_72 ((_ extract 2 2) tmp_0)))
        (let ((tmp_73 (bvand tmp_72 tmp_12)))
        (let ((tmp_74 (bvand tmp_31 tmp_33)))
        (let ((tmp_75 ((_ extract 2 2) tmp)))
        (let ((tmp_76 (bvand tmp_13 tmp_75)))
        (let ((tmp_77 (bvand tmp_76 tmp_74)))
        (let ((tmp_78 (bvxor tmp_77 #b1)))
        (let ((tmp_79 (bvxor tmp_74 #b1)))
        (let ((tmp_80 (bvxor tmp_76 #b1)))
        (let ((tmp_81 (bvand tmp_80 tmp_79)))
        (let ((tmp_82 (bvxor tmp_81 #b1)))
        (let ((tmp_83 (bvand tmp_82 tmp_78)))
        (let ((tmp_84 (bvand tmp_83 tmp_73)))
        (let ((tmp_85 (bvxor tmp_84 #b1)))
        (let ((tmp_86 (bvxor tmp_73 #b1)))
        (let ((tmp_87 (bvxor tmp_83 #b1)))
        (let ((tmp_88 (bvand tmp_87 tmp_86)))
        (let ((tmp_89 (bvxor tmp_88 #b1)))
        (let ((tmp_90 (bvand tmp_89 tmp_85)))
        (let ((tmp_91 (bvand tmp_90 tmp_35)))
        (let ((tmp_92 (bvxor tmp_91 #b1)))
        (let ((tmp_93 (bvxor tmp_90 #b1)))
        (let ((tmp_94 (bvand tmp_93 tmp_36)))
        (let ((tmp_95 (bvxor tmp_94 #b1)))
        (let ((tmp_96 (bvand tmp_95 tmp_92)))
        (let ((tmp_97 (bvand tmp_96 tmp_71)))
        (let ((tmp_98 (bvxor tmp_97 #b1)))
        (let ((tmp_99 (bvxor tmp_71 #b1)))
        (let ((tmp_100 (bvxor tmp_96 #b1)))
        (let ((tmp_101 (bvand tmp_100 tmp_99)))
        (let ((tmp_102 (bvxor tmp_101 #b1)))
        (let ((tmp_103 (bvand tmp_102 tmp_98)))
        (let ((tmp_104 (bvand tmp_103 tmp_42)))
        (let ((tmp_105 (bvxor tmp_104 #b1)))
        (let ((tmp_106 (bvxor tmp_103 #b1)))
        (let ((tmp_107 (bvand tmp_106 tmp_43)))
        (let ((tmp_108 (bvxor tmp_107 #b1)))
        (let ((tmp_109 (bvand tmp_108 tmp_105)))
        (let ((tmp_110 (bvand tmp_109 tmp_24)))
        (let ((tmp_111 (bvxor tmp_110 #b1)))
        (let ((tmp_112 (bvxor tmp_109 #b1)))
        (let ((tmp_113 (bvand tmp_112 tmp_25)))
        (let ((tmp_114 (bvxor tmp_113 #b1)))
        (let ((tmp_115 (bvand tmp_114 tmp_111)))
        (let ((tmp_116 (bvand tmp_115 tmp_62)))
        (let ((tmp_117 (bvxor tmp_116 #b1)))
        (let ((tmp_118 (bvxor tmp_115 #b1)))
        (let ((tmp_119 (bvand tmp_118 tmp_61)))
        (let ((tmp_120 (bvxor tmp_119 #b1)))
        (let ((tmp_121 (bvand tmp_120 tmp_117)))
        (let ((tmp_122 (bvand tmp_105 tmp_111)))
        (let ((tmp_123 (bvxor tmp_122 #b1)))
        (let ((tmp_124 (bvand tmp_92 tmp_98)))
        (let ((tmp_125 (bvxor tmp_124 #b1)))
        (let ((tmp_126 ((_ extract 3 3) tmp_2)))
        (let ((tmp_127 ((_ extract 3 3) tmp_1)))
        (let ((tmp_128 ((_ extract 3 3) tmp_0)))
        (let ((tmp_129 (bvand tmp_128 tmp_12)))
        (let ((tmp_130 (bvand tmp_129 tmp_127)))
        (let ((tmp_131 (bvxor tmp_130 #b1)))
        (let ((tmp_132 (bvxor tmp_127 #b1)))
        (let ((tmp_133 (bvxor tmp_129 #b1)))
        (let ((tmp_134 (bvand tmp_133 tmp_132)))
        (let ((tmp_135 (bvxor tmp_134 #b1)))
        (let ((tmp_136 (bvand tmp_135 tmp_131)))
        (let ((tmp_137 (bvand tmp_136 tmp_126)))
        (let ((tmp_138 (bvxor tmp_137 #b1)))
        (let ((tmp_139 (bvxor tmp_126 #b1)))
        (let ((tmp_140 (bvxor tmp_136 #b1)))
        (let ((tmp_141 (bvand tmp_140 tmp_139)))
        (let ((tmp_142 (bvxor tmp_141 #b1)))
        (let ((tmp_143 (bvand tmp_142 tmp_138)))
        (let ((tmp_144 (bvand tmp_78 tmp_85)))
        (let ((tmp_145 (bvxor tmp_144 #b1)))
        (let ((tmp_146 (bvand tmp_72 tmp_33)))
        (let ((tmp_147 (bvand tmp_31 tmp_75)))
        (let ((tmp_148 ((_ extract 3 3) tmp)))
        (let ((tmp_149 (bvand tmp_13 tmp_148)))
        (let ((tmp_150 (bvand tmp_149 tmp_147)))
        (let ((tmp_151 (bvxor tmp_150 #b1)))
        (let ((tmp_152 (bvxor tmp_147 #b1)))
        (let ((tmp_153 (bvxor tmp_149 #b1)))
        (let ((tmp_154 (bvand tmp_153 tmp_152)))
        (let ((tmp_155 (bvxor tmp_154 #b1)))
        (let ((tmp_156 (bvand tmp_155 tmp_151)))
        (let ((tmp_157 (bvand tmp_156 tmp_146)))
        (let ((tmp_158 (bvxor tmp_157 #b1)))
        (let ((tmp_159 (bvxor tmp_146 #b1)))
        (let ((tmp_160 (bvxor tmp_156 #b1)))
        (let ((tmp_161 (bvand tmp_160 tmp_159)))
        (let ((tmp_162 (bvxor tmp_161 #b1)))
        (let ((tmp_163 (bvand tmp_162 tmp_158)))
        (let ((tmp_164 (bvand tmp_163 tmp_145)))
        (let ((tmp_165 (bvxor tmp_164 #b1)))
        (let ((tmp_166 (bvxor tmp_163 #b1)))
        (let ((tmp_167 (bvand tmp_166 tmp_144)))
        (let ((tmp_168 (bvxor tmp_167 #b1)))
        (let ((tmp_169 (bvand tmp_168 tmp_165)))
        (let ((tmp_170 (bvand tmp_169 tmp_143)))
        (let ((tmp_171 (bvxor tmp_170 #b1)))
        (let ((tmp_172 (bvxor tmp_143 #b1)))
        (let ((tmp_173 (bvxor tmp_169 #b1)))
        (let ((tmp_174 (bvand tmp_173 tmp_172)))
        (let ((tmp_175 (bvxor tmp_174 #b1)))
        (let ((tmp_176 (bvand tmp_175 tmp_171)))
        (let ((tmp_177 (bvand tmp_176 tmp_125)))
        (let ((tmp_178 (bvxor tmp_177 #b1)))
        (let ((tmp_179 (bvxor tmp_176 #b1)))
        (let ((tmp_180 (bvand tmp_179 tmp_124)))
        (let ((tmp_181 (bvxor tmp_180 #b1)))
        (let ((tmp_182 (bvand tmp_181 tmp_178)))
        (let ((tmp_183 (bvand tmp_182 tmp_65)))
        (let ((tmp_184 (bvxor tmp_183 #b1)))
        (let ((tmp_185 (bvxor tmp_182 #b1)))
        (let ((tmp_186 (bvand tmp_185 tmp_66)))
        (let ((tmp_187 (bvxor tmp_186 #b1)))
        (let ((tmp_188 (bvand tmp_187 tmp_184)))
        (let ((tmp_189 (bvand tmp_188 tmp_123)))
        (let ((tmp_190 (bvxor tmp_189 #b1)))
        (let ((tmp_191 (bvxor tmp_188 #b1)))
        (let ((tmp_192 (bvand tmp_191 tmp_122)))
        (let ((tmp_193 (bvxor tmp_192 #b1)))
        (let ((tmp_194 (bvand tmp_193 tmp_190)))
        (let ((tmp_195 (bvand tmp_194 tmp_116)))
        (let ((tmp_196 (bvxor tmp_195 #b1)))
        (let ((tmp_197 (bvxor tmp_194 #b1)))
        (let ((tmp_198 (bvand tmp_197 tmp_117)))
        (let ((tmp_199 (bvxor tmp_198 #b1)))
        (let ((tmp_200 (bvand tmp_199 tmp_196)))
        (let ((tmp_201 (bvand tmp_190 tmp_196)))
        (let ((tmp_202 (bvxor tmp_201 #b1)))
        (let ((tmp_203 (bvand tmp_178 tmp_184)))
        (let ((tmp_204 (bvxor tmp_203 #b1)))
        (let ((tmp_205 (bvand tmp_131 tmp_138)))
        (let ((tmp_206 (bvxor tmp_205 #b1)))
        (let ((tmp_207 (bvand tmp_165 tmp_171)))
        (let ((tmp_208 (bvxor tmp_207 #b1)))
        (let ((tmp_209 ((_ extract 4 4) tmp_2)))
        (let ((tmp_210 ((_ extract 4 4) tmp_1)))
        (let ((tmp_211 (bvand tmp_128 tmp_33)))
        (let ((tmp_212 (bvand tmp_211 tmp_210)))
        (let ((tmp_213 (bvxor tmp_212 #b1)))
        (let ((tmp_214 (bvxor tmp_210 #b1)))
        (let ((tmp_215 (bvxor tmp_211 #b1)))
        (let ((tmp_216 (bvand tmp_215 tmp_214)))
        (let ((tmp_217 (bvxor tmp_216 #b1)))
        (let ((tmp_218 (bvand tmp_217 tmp_213)))
        (let ((tmp_219 (bvand tmp_218 tmp_209)))
        (let ((tmp_220 (bvxor tmp_219 #b1)))
        (let ((tmp_221 (bvxor tmp_209 #b1)))
        (let ((tmp_222 (bvxor tmp_218 #b1)))
        (let ((tmp_223 (bvand tmp_222 tmp_221)))
        (let ((tmp_224 (bvxor tmp_223 #b1)))
        (let ((tmp_225 (bvand tmp_224 tmp_220)))
        (let ((tmp_226 (bvand tmp_151 tmp_158)))
        (let ((tmp_227 (bvxor tmp_226 #b1)))
        (let ((tmp_228 (bvand tmp_72 tmp_75)))
        (let ((tmp_229 (bvand tmp_31 tmp_148)))
        (let ((tmp_230 (bvand tmp_229 tmp_228)))
        (let ((tmp_231 (bvxor tmp_230 #b1)))
        (let ((tmp_232 (bvxor tmp_228 #b1)))
        (let ((tmp_233 (bvxor tmp_229 #b1)))
        (let ((tmp_234 (bvand tmp_233 tmp_232)))
        (let ((tmp_235 (bvxor tmp_234 #b1)))
        (let ((tmp_236 (bvand tmp_235 tmp_231)))
        (let ((tmp_237 (bvand tmp_236 tmp_227)))
        (let ((tmp_238 (bvxor tmp_237 #b1)))
        (let ((tmp_239 (bvxor tmp_236 #b1)))
        (let ((tmp_240 (bvand tmp_239 tmp_226)))
        (let ((tmp_241 (bvxor tmp_240 #b1)))
        (let ((tmp_242 (bvand tmp_241 tmp_238)))
        (let ((tmp_243 (bvand tmp_242 tmp_225)))
        (let ((tmp_244 (bvxor tmp_243 #b1)))
        (let ((tmp_245 (bvxor tmp_225 #b1)))
        (let ((tmp_246 (bvxor tmp_242 #b1)))
        (let ((tmp_247 (bvand tmp_246 tmp_245)))
        (let ((tmp_248 (bvxor tmp_247 #b1)))
        (let ((tmp_249 (bvand tmp_248 tmp_244)))
        (let ((tmp_250 (bvand tmp_249 tmp_208)))
        (let ((tmp_251 (bvxor tmp_250 #b1)))
        (let ((tmp_252 (bvxor tmp_249 #b1)))
        (let ((tmp_253 (bvand tmp_252 tmp_207)))
        (let ((tmp_254 (bvxor tmp_253 #b1)))
        (let ((tmp_255 (bvand tmp_254 tmp_251)))
        (let ((tmp_256 (bvand tmp_255 tmp_206)))
        (let ((tmp_257 (bvxor tmp_256 #b1)))
        (let ((tmp_258 (bvxor tmp_255 #b1)))
        (let ((tmp_259 (bvand tmp_258 tmp_205)))
        (let ((tmp_260 (bvxor tmp_259 #b1)))
        (let ((tmp_261 (bvand tmp_260 tmp_257)))
        (let ((tmp_262 (bvand tmp_261 tmp_204)))
        (let ((tmp_263 (bvxor tmp_262 #b1)))
        (let ((tmp_264 (bvxor tmp_261 #b1)))
        (let ((tmp_265 (bvand tmp_264 tmp_203)))
        (let ((tmp_266 (bvxor tmp_265 #b1)))
        (let ((tmp_267 (bvand tmp_266 tmp_263)))
        (let ((tmp_268 (bvand tmp_267 tmp_202)))
        (let ((tmp_269 (bvxor tmp_268 #b1)))
        (let ((tmp_270 (bvxor tmp_267 #b1)))
        (let ((tmp_271 (bvand tmp_270 tmp_201)))
        (let ((tmp_272 (bvxor tmp_271 #b1)))
        (let ((tmp_273 (bvand tmp_272 tmp_269)))
        (let ((tmp_274 (bvand tmp_60 tmp_21)))
        (let ((tmp_275 (bvand tmp_121 tmp_274)))
        (let ((tmp_276 (bvand tmp_194 tmp_275)))
        (let ((tmp_277 (bvand tmp_267 tmp_276)))
        (let ((tmp_278 (bvand tmp_277 tmp_116)))
        (let ((tmp_279 (bvxor tmp_278 #b1)))
        (let ((tmp_280 (bvand tmp_263 tmp_269)))
        (let ((tmp_281 (bvand tmp_280 tmp_279)))
        (let ((tmp_282 (bvxor tmp_281 #b1)))
        (let ((tmp_283 (bvand tmp_251 tmp_257)))
        (let ((tmp_284 (bvxor tmp_283 #b1)))
        (let ((tmp_285 (bvand tmp_213 tmp_220)))
        (let ((tmp_286 (bvxor tmp_285 #b1)))
        (let ((tmp_287 (bvand tmp_238 tmp_244)))
        (let ((tmp_288 (bvxor tmp_287 #b1)))
        (let ((tmp_289 ((_ extract 5 5) tmp_2)))
        (let ((tmp_290 ((_ extract 5 5) tmp_1)))
        (let ((tmp_291 (bvand tmp_128 tmp_75)))
        (let ((tmp_292 (bvand tmp_291 tmp_290)))
        (let ((tmp_293 (bvxor tmp_292 #b1)))
        (let ((tmp_294 (bvxor tmp_290 #b1)))
        (let ((tmp_295 (bvxor tmp_291 #b1)))
        (let ((tmp_296 (bvand tmp_295 tmp_294)))
        (let ((tmp_297 (bvxor tmp_296 #b1)))
        (let ((tmp_298 (bvand tmp_297 tmp_293)))
        (let ((tmp_299 (bvand tmp_298 tmp_289)))
        (let ((tmp_300 (bvxor tmp_299 #b1)))
        (let ((tmp_301 (bvxor tmp_289 #b1)))
        (let ((tmp_302 (bvxor tmp_298 #b1)))
        (let ((tmp_303 (bvand tmp_302 tmp_301)))
        (let ((tmp_304 (bvxor tmp_303 #b1)))
        (let ((tmp_305 (bvand tmp_304 tmp_300)))
        (let ((tmp_306 (bvand tmp_72 tmp_148)))
        (let ((tmp_307 (bvand tmp_306 tmp_230)))
        (let ((tmp_308 (bvxor tmp_307 #b1)))
        (let ((tmp_309 (bvxor tmp_306 #b1)))
        (let ((tmp_310 (bvand tmp_309 tmp_231)))
        (let ((tmp_311 (bvxor tmp_310 #b1)))
        (let ((tmp_312 (bvand tmp_311 tmp_308)))
        (let ((tmp_313 (bvand tmp_312 tmp_305)))
        (let ((tmp_314 (bvxor tmp_313 #b1)))
        (let ((tmp_315 (bvxor tmp_305 #b1)))
        (let ((tmp_316 (bvxor tmp_312 #b1)))
        (let ((tmp_317 (bvand tmp_316 tmp_315)))
        (let ((tmp_318 (bvxor tmp_317 #b1)))
        (let ((tmp_319 (bvand tmp_318 tmp_314)))
        (let ((tmp_320 (bvand tmp_319 tmp_288)))
        (let ((tmp_321 (bvxor tmp_320 #b1)))
        (let ((tmp_322 (bvxor tmp_319 #b1)))
        (let ((tmp_323 (bvand tmp_322 tmp_287)))
        (let ((tmp_324 (bvxor tmp_323 #b1)))
        (let ((tmp_325 (bvand tmp_324 tmp_321)))
        (let ((tmp_326 (bvand tmp_325 tmp_286)))
        (let ((tmp_327 (bvxor tmp_326 #b1)))
        (let ((tmp_328 (bvxor tmp_325 #b1)))
        (let ((tmp_329 (bvand tmp_328 tmp_285)))
        (let ((tmp_330 (bvxor tmp_329 #b1)))
        (let ((tmp_331 (bvand tmp_330 tmp_327)))
        (let ((tmp_332 (bvand tmp_331 tmp_284)))
        (let ((tmp_333 (bvxor tmp_332 #b1)))
        (let ((tmp_334 (bvxor tmp_331 #b1)))
        (let ((tmp_335 (bvand tmp_334 tmp_283)))
        (let ((tmp_336 (bvxor tmp_335 #b1)))
        (let ((tmp_337 (bvand tmp_336 tmp_333)))
        (let ((tmp_338 (bvand tmp_337 tmp_282)))
        (let ((tmp_339 (bvxor tmp_338 #b1)))
        (let ((tmp_340 (bvxor tmp_337 #b1)))
        (let ((tmp_341 (bvand tmp_340 tmp_281)))
        (let ((tmp_342 (bvxor tmp_341 #b1)))
        (let ((tmp_343 (bvand tmp_342 tmp_339)))
        (let ((tmp_344 (bvand tmp_337 tmp_277)))
        (let ((tmp_345 (bvand tmp_344 tmp_202)))
        (let ((tmp_346 (bvxor tmp_345 #b1)))
        (let ((tmp_347 (bvxor tmp_280 #b1)))
        (let ((tmp_348 (bvand tmp_337 tmp_347)))
        (let ((tmp_349 (bvxor tmp_348 #b1)))
        (let ((tmp_350 (bvand tmp_333 tmp_349)))
        (let ((tmp_351 (bvand tmp_350 tmp_346)))
        (let ((tmp_352 (bvxor tmp_351 #b1)))
        (let ((tmp_353 (bvand tmp_321 tmp_327)))
        (let ((tmp_354 (bvxor tmp_353 #b1)))
        (let ((tmp_355 (bvand tmp_293 tmp_300)))
        (let ((tmp_356 (bvxor tmp_355 #b1)))
        (let ((tmp_357 (bvand tmp_308 tmp_314)))
        (let ((tmp_358 (bvxor tmp_357 #b1)))
        (let ((tmp_359 ((_ extract 6 6) tmp_2)))
        (let ((tmp_360 ((_ extract 6 6) tmp_1)))
        (let ((tmp_361 (bvand tmp_128 tmp_148)))
        (let ((tmp_362 (bvand tmp_361 tmp_360)))
        (let ((tmp_363 (bvxor tmp_362 #b1)))
        (let ((tmp_364 (bvxor tmp_360 #b1)))
        (let ((tmp_365 (bvxor tmp_361 #b1)))
        (let ((tmp_366 (bvand tmp_365 tmp_364)))
        (let ((tmp_367 (bvxor tmp_366 #b1)))
        (let ((tmp_368 (bvand tmp_367 tmp_363)))
        (let ((tmp_369 (bvand tmp_368 tmp_359)))
        (let ((tmp_370 (bvxor tmp_369 #b1)))
        (let ((tmp_371 (bvxor tmp_359 #b1)))
        (let ((tmp_372 (bvxor tmp_368 #b1)))
        (let ((tmp_373 (bvand tmp_372 tmp_371)))
        (let ((tmp_374 (bvxor tmp_373 #b1)))
        (let ((tmp_375 (bvand tmp_374 tmp_370)))
        (let ((tmp_376 (bvand tmp_375 tmp_358)))
        (let ((tmp_377 (bvxor tmp_376 #b1)))
        (let ((tmp_378 (bvxor tmp_375 #b1)))
        (let ((tmp_379 (bvand tmp_378 tmp_357)))
        (let ((tmp_380 (bvxor tmp_379 #b1)))
        (let ((tmp_381 (bvand tmp_380 tmp_377)))
        (let ((tmp_382 (bvand tmp_381 tmp_356)))
        (let ((tmp_383 (bvxor tmp_382 #b1)))
        (let ((tmp_384 (bvxor tmp_381 #b1)))
        (let ((tmp_385 (bvand tmp_384 tmp_355)))
        (let ((tmp_386 (bvxor tmp_385 #b1)))
        (let ((tmp_387 (bvand tmp_386 tmp_383)))
        (let ((tmp_388 (bvand tmp_387 tmp_354)))
        (let ((tmp_389 (bvxor tmp_388 #b1)))
        (let ((tmp_390 (bvxor tmp_387 #b1)))
        (let ((tmp_391 (bvand tmp_390 tmp_353)))
        (let ((tmp_392 (bvxor tmp_391 #b1)))
        (let ((tmp_393 (bvand tmp_392 tmp_389)))
        (let ((tmp_394 (bvand tmp_393 tmp_352)))
        (let ((tmp_395 (bvxor tmp_394 #b1)))
        (let ((tmp_396 (bvxor tmp_393 #b1)))
        (let ((tmp_397 (bvand tmp_396 tmp_351)))
        (let ((tmp_398 (bvxor tmp_397 #b1)))
        (let ((tmp_399 (bvand tmp_398 tmp_395)))
        (let ((tmp_400 (bvand tmp_393 tmp_344)))
        (let ((tmp_401 (bvand tmp_400 tmp_116)))
        (let ((tmp_402 (bvxor tmp_401 #b1)))
        (let ((tmp_403 (bvand tmp_400 tmp_282)))
        (let ((tmp_404 (bvxor tmp_403 #b1)))
        (let ((tmp_405 (bvxor tmp_350 #b1)))
        (let ((tmp_406 (bvand tmp_393 tmp_405)))
        (let ((tmp_407 (bvxor tmp_406 #b1)))
        (let ((tmp_408 (bvand tmp_389 tmp_407)))
        (let ((tmp_409 (bvand tmp_408 tmp_404)))
        (let ((tmp_410 (bvand tmp_409 tmp_402)))
        (let ((tmp_411 (bvxor tmp_410 #b1)))
        (let ((tmp_412 (bvand tmp_377 tmp_383)))
        (let ((tmp_413 (bvxor tmp_412 #b1)))
        (let ((tmp_414 (bvand tmp_363 tmp_370)))
        (let ((tmp_415 (bvxor tmp_414 #b1)))
        (let ((tmp_416 ((_ extract 7 7) tmp_2)))
        (let ((tmp_417 ((_ extract 7 7) tmp_1)))
        (let ((tmp_418 (bvand tmp_417 tmp_416)))
        (let ((tmp_419 (bvxor tmp_418 #b1)))
        (let ((tmp_420 (bvxor tmp_416 #b1)))
        (let ((tmp_421 (bvxor tmp_417 #b1)))
        (let ((tmp_422 (bvand tmp_421 tmp_420)))
        (let ((tmp_423 (bvxor tmp_422 #b1)))
        (let ((tmp_424 (bvand tmp_423 tmp_419)))
        (let ((tmp_425 (bvand tmp_424 tmp_415)))
        (let ((tmp_426 (bvxor tmp_425 #b1)))
        (let ((tmp_427 (bvxor tmp_424 #b1)))
        (let ((tmp_428 (bvand tmp_427 tmp_414)))
        (let ((tmp_429 (bvxor tmp_428 #b1)))
        (let ((tmp_430 (bvand tmp_429 tmp_426)))
        (let ((tmp_431 (bvand tmp_430 tmp_413)))
        (let ((tmp_432 (bvxor tmp_431 #b1)))
        (let ((tmp_433 (bvxor tmp_430 #b1)))
        (let ((tmp_434 (bvand tmp_433 tmp_412)))
        (let ((tmp_435 (bvxor tmp_434 #b1)))
        (let ((tmp_436 (bvand tmp_435 tmp_432)))
        (let ((tmp_437 (bvand tmp_436 tmp_411)))
        (let ((tmp_438 (bvxor tmp_437 #b1)))
        (let ((tmp_439 (bvxor tmp_436 #b1)))
        (let ((tmp_440 (bvand tmp_439 tmp_410)))
        (let ((tmp_441 (bvxor tmp_440 #b1)))
        (let ((tmp_442 (bvand tmp_441 tmp_438)))
        (let ((tmp_443 (bvand tmp_436 tmp_400)))
        (let ((tmp_444 (bvand tmp_443 tmp_202)))
        (let ((tmp_445 (bvxor tmp_444 #b1)))
        (let ((tmp_446 (bvand tmp_443 tmp_352)))
        (let ((tmp_447 (bvxor tmp_446 #b1)))
        (let ((tmp_448 (bvxor tmp_408 #b1)))
        (let ((tmp_449 (bvand tmp_436 tmp_448)))
        (let ((tmp_450 (bvxor tmp_449 #b1)))
        (let ((tmp_451 (bvand tmp_432 tmp_450)))
        (let ((tmp_452 (bvand tmp_451 tmp_447)))
        (let ((tmp_453 (bvand tmp_452 tmp_445)))
        (let ((tmp_454 (bvxor tmp_453 #b1)))
        (let ((tmp_455 ((_ extract 8 8) tmp_2)))
        (let ((tmp_456 ((_ extract 8 8) tmp_1)))
        (let ((tmp_457 (bvand tmp_456 tmp_455)))
        (let ((tmp_458 (bvxor tmp_457 #b1)))
        (let ((tmp_459 (bvxor tmp_455 #b1)))
        (let ((tmp_460 (bvxor tmp_456 #b1)))
        (let ((tmp_461 (bvand tmp_460 tmp_459)))
        (let ((tmp_462 (bvxor tmp_461 #b1)))
        (let ((tmp_463 (bvand tmp_462 tmp_458)))
        (let ((tmp_464 (bvand tmp_463 tmp_418)))
        (let ((tmp_465 (bvxor tmp_464 #b1)))
        (let ((tmp_466 (bvxor tmp_463 #b1)))
        (let ((tmp_467 (bvand tmp_466 tmp_419)))
        (let ((tmp_468 (bvxor tmp_467 #b1)))
        (let ((tmp_469 (bvand tmp_468 tmp_465)))
        (let ((tmp_470 (bvand tmp_469 tmp_425)))
        (let ((tmp_471 (bvxor tmp_470 #b1)))
        (let ((tmp_472 (bvxor tmp_469 #b1)))
        (let ((tmp_473 (bvand tmp_472 tmp_426)))
        (let ((tmp_474 (bvxor tmp_473 #b1)))
        (let ((tmp_475 (bvand tmp_474 tmp_471)))
        (let ((tmp_476 (bvand tmp_475 tmp_454)))
        (let ((tmp_477 (bvxor tmp_476 #b1)))
        (let ((tmp_478 (bvxor tmp_475 #b1)))
        (let ((tmp_479 (bvand tmp_478 tmp_453)))
        (let ((tmp_480 (bvxor tmp_479 #b1)))
        (let ((tmp_481 (bvand tmp_480 tmp_477)))
        (let ((tmp_482 (bvand tmp_475 tmp_443)))
        (let ((tmp_483 (bvand tmp_482 tmp_282)))
        (let ((tmp_484 (bvxor tmp_483 #b1)))
        (let ((tmp_485 (bvxor tmp_409 #b1)))
        (let ((tmp_486 (bvand tmp_482 tmp_485)))
        (let ((tmp_487 (bvxor tmp_486 #b1)))
        (let ((tmp_488 (bvxor tmp_451 #b1)))
        (let ((tmp_489 (bvand tmp_475 tmp_488)))
        (let ((tmp_490 (bvxor tmp_489 #b1)))
        (let ((tmp_491 (bvand tmp_471 tmp_490)))
        (let ((tmp_492 (bvand tmp_491 tmp_487)))
        (let ((tmp_493 (bvand tmp_492 tmp_484)))
        (let ((tmp_494 (bvxor tmp_493 #b1)))
        (let ((tmp_495 ((_ extract 9 9) tmp_2)))
        (let ((tmp_496 ((_ extract 9 9) tmp_1)))
        (let ((tmp_497 (bvand tmp_496 tmp_495)))
        (let ((tmp_498 (bvxor tmp_497 #b1)))
        (let ((tmp_499 (bvxor tmp_495 #b1)))
        (let ((tmp_500 (bvxor tmp_496 #b1)))
        (let ((tmp_501 (bvand tmp_500 tmp_499)))
        (let ((tmp_502 (bvxor tmp_501 #b1)))
        (let ((tmp_503 (bvand tmp_502 tmp_498)))
        (let ((tmp_504 (bvand tmp_503 tmp_457)))
        (let ((tmp_505 (bvxor tmp_504 #b1)))
        (let ((tmp_506 (bvxor tmp_503 #b1)))
        (let ((tmp_507 (bvand tmp_506 tmp_458)))
        (let ((tmp_508 (bvxor tmp_507 #b1)))
        (let ((tmp_509 (bvand tmp_508 tmp_505)))
        (let ((tmp_510 (bvand tmp_509 tmp_464)))
        (let ((tmp_511 (bvxor tmp_510 #b1)))
        (let ((tmp_512 (bvxor tmp_509 #b1)))
        (let ((tmp_513 (bvand tmp_512 tmp_465)))
        (let ((tmp_514 (bvxor tmp_513 #b1)))
        (let ((tmp_515 (bvand tmp_514 tmp_511)))
        (let ((tmp_516 (bvand tmp_515 tmp_494)))
        (let ((tmp_517 (bvxor tmp_516 #b1)))
        (let ((tmp_518 (bvxor tmp_515 #b1)))
        (let ((tmp_519 (bvand tmp_518 tmp_493)))
        (let ((tmp_520 (bvxor tmp_519 #b1)))
        (let ((tmp_521 (bvand tmp_520 tmp_517)))
        (let ((tmp_522 (bvand tmp_515 tmp_482)))
        (let ((tmp_523 (bvand tmp_522 tmp_352)))
        (let ((tmp_524 (bvxor tmp_523 #b1)))
        (let ((tmp_525 (bvxor tmp_452 #b1)))
        (let ((tmp_526 (bvand tmp_522 tmp_525)))
        (let ((tmp_527 (bvxor tmp_526 #b1)))
        (let ((tmp_528 (bvxor tmp_491 #b1)))
        (let ((tmp_529 (bvand tmp_515 tmp_528)))
        (let ((tmp_530 (bvxor tmp_529 #b1)))
        (let ((tmp_531 (bvand tmp_511 tmp_530)))
        (let ((tmp_532 (bvand tmp_531 tmp_527)))
        (let ((tmp_533 (bvand tmp_532 tmp_524)))
        (let ((tmp_534 (bvxor tmp_533 #b1)))
        (let ((tmp_535 ((_ extract 10 10) tmp_2)))
        (let ((tmp_536 ((_ extract 10 10) tmp_1)))
        (let ((tmp_537 (bvand tmp_536 tmp_535)))
        (let ((tmp_538 (bvxor tmp_537 #b1)))
        (let ((tmp_539 (bvxor tmp_535 #b1)))
        (let ((tmp_540 (bvxor tmp_536 #b1)))
        (let ((tmp_541 (bvand tmp_540 tmp_539)))
        (let ((tmp_542 (bvxor tmp_541 #b1)))
        (let ((tmp_543 (bvand tmp_542 tmp_538)))
        (let ((tmp_544 (bvand tmp_543 tmp_497)))
        (let ((tmp_545 (bvxor tmp_544 #b1)))
        (let ((tmp_546 (bvxor tmp_543 #b1)))
        (let ((tmp_547 (bvand tmp_546 tmp_498)))
        (let ((tmp_548 (bvxor tmp_547 #b1)))
        (let ((tmp_549 (bvand tmp_548 tmp_545)))
        (let ((tmp_550 (bvand tmp_549 tmp_504)))
        (let ((tmp_551 (bvxor tmp_550 #b1)))
        (let ((tmp_552 (bvxor tmp_549 #b1)))
        (let ((tmp_553 (bvand tmp_552 tmp_505)))
        (let ((tmp_554 (bvxor tmp_553 #b1)))
        (let ((tmp_555 (bvand tmp_554 tmp_551)))
        (let ((tmp_556 (bvand tmp_555 tmp_534)))
        (let ((tmp_557 (bvxor tmp_556 #b1)))
        (let ((tmp_558 (bvxor tmp_555 #b1)))
        (let ((tmp_559 (bvand tmp_558 tmp_533)))
        (let ((tmp_560 (bvxor tmp_559 #b1)))
        (let ((tmp_561 (bvand tmp_560 tmp_557)))
        (let ((tmp_562 (bvand tmp_275 tmp_116)))
        (let ((tmp_563 (bvand tmp_555 tmp_522)))
        (let ((tmp_564 (bvand tmp_563 tmp_400)))
        (let ((tmp_565 (bvand tmp_564 tmp_562)))
        (let ((tmp_566 (bvxor tmp_565 #b1)))
        (let ((tmp_567 (bvand tmp_563 tmp_411)))
        (let ((tmp_568 (bvxor tmp_567 #b1)))
        (let ((tmp_569 (bvand tmp_568 tmp_566)))
        (let ((tmp_570 (bvxor tmp_492 #b1)))
        (let ((tmp_571 (bvand tmp_563 tmp_570)))
        (let ((tmp_572 (bvxor tmp_571 #b1)))
        (let ((tmp_573 (bvxor tmp_531 #b1)))
        (let ((tmp_574 (bvand tmp_555 tmp_573)))
        (let ((tmp_575 (bvxor tmp_574 #b1)))
        (let ((tmp_576 (bvand tmp_551 tmp_575)))
        (let ((tmp_577 (bvand tmp_576 tmp_572)))
        (let ((tmp_578 (bvand tmp_577 tmp_569)))
        (let ((tmp_579 (bvxor tmp_578 #b1)))
        (let ((tmp_580 ((_ extract 11 11) tmp_2)))
        (let ((tmp_581 ((_ extract 11 11) tmp_1)))
        (let ((tmp_582 (bvand tmp_581 tmp_580)))
        (let ((tmp_583 (bvxor tmp_582 #b1)))
        (let ((tmp_584 (bvxor tmp_580 #b1)))
        (let ((tmp_585 (bvxor tmp_581 #b1)))
        (let ((tmp_586 (bvand tmp_585 tmp_584)))
        (let ((tmp_587 (bvxor tmp_586 #b1)))
        (let ((tmp_588 (bvand tmp_587 tmp_583)))
        (let ((tmp_589 (bvand tmp_588 tmp_537)))
        (let ((tmp_590 (bvxor tmp_589 #b1)))
        (let ((tmp_591 (bvxor tmp_588 #b1)))
        (let ((tmp_592 (bvand tmp_591 tmp_538)))
        (let ((tmp_593 (bvxor tmp_592 #b1)))
        (let ((tmp_594 (bvand tmp_593 tmp_590)))
        (let ((tmp_595 (bvand tmp_594 tmp_544)))
        (let ((tmp_596 (bvxor tmp_595 #b1)))
        (let ((tmp_597 (bvxor tmp_594 #b1)))
        (let ((tmp_598 (bvand tmp_597 tmp_545)))
        (let ((tmp_599 (bvxor tmp_598 #b1)))
        (let ((tmp_600 (bvand tmp_599 tmp_596)))
        (let ((tmp_601 (bvand tmp_600 tmp_579)))
        (let ((tmp_602 (bvxor tmp_601 #b1)))
        (let ((tmp_603 (bvxor tmp_600 #b1)))
        (let ((tmp_604 (bvand tmp_603 tmp_578)))
        (let ((tmp_605 (bvxor tmp_604 #b1)))
        (let ((tmp_606 (bvand tmp_605 tmp_602)))
        (let ((tmp_607 (bvand tmp_276 tmp_202)))
        (let ((tmp_608 (bvand tmp_600 tmp_563)))
        (let ((tmp_609 (bvand tmp_608 tmp_443)))
        (let ((tmp_610 (bvand tmp_609 tmp_607)))
        (let ((tmp_611 (bvxor tmp_610 #b1)))
        (let ((tmp_612 (bvand tmp_608 tmp_454)))
        (let ((tmp_613 (bvxor tmp_612 #b1)))
        (let ((tmp_614 (bvand tmp_613 tmp_611)))
        (let ((tmp_615 (bvxor tmp_532 #b1)))
        (let ((tmp_616 (bvand tmp_608 tmp_615)))
        (let ((tmp_617 (bvxor tmp_616 #b1)))
        (let ((tmp_618 (bvand tmp_617 tmp_614)))
        (let ((tmp_619 (bvxor tmp_576 #b1)))
        (let ((tmp_620 (bvand tmp_600 tmp_619)))
        (let ((tmp_621 (bvxor tmp_620 #b1)))
        (let ((tmp_622 (bvand tmp_596 tmp_621)))
        (let ((tmp_623 (bvand tmp_622 tmp_618)))
        (let ((tmp_624 (bvxor tmp_623 #b1)))
        (let ((tmp_625 (bvand tmp_589 tmp_624)))
        (let ((tmp_626 (bvxor tmp_625 #b1)))
        (let ((tmp_627 (bvand tmp_590 tmp_623)))
        (let ((tmp_628 (bvxor tmp_627 #b1)))
        (let ((tmp_629 (bvand tmp_628 tmp_626)))
        (let ((tmp_630 (bvand tmp_582 tmp_629)))
        (let ((tmp_631 (bvxor tmp_630 #b1)))
        (let ((tmp_632 (bvxor tmp_629 #b1)))
        (let ((tmp_633 (bvand tmp_583 tmp_632)))
        (let ((tmp_634 (bvxor tmp_633 #b1)))
        (let ((tmp_635 (bvand tmp_634 tmp_631)))
        (let ((tmp_636 ((_ extract 12 12) tmp_2)))
        (let ((tmp_637 ((_ extract 12 12) tmp_1)))
        (let ((tmp_638 (bvand tmp_637 tmp_636)))
        (let ((tmp_639 (bvxor tmp_638 #b1)))
        (let ((tmp_640 (bvxor tmp_636 #b1)))
        (let ((tmp_641 (bvxor tmp_637 #b1)))
        (let ((tmp_642 (bvand tmp_641 tmp_640)))
        (let ((tmp_643 (bvxor tmp_642 #b1)))
        (let ((tmp_644 (bvand tmp_643 tmp_639)))
        (let ((tmp_645 (bvand tmp_644 tmp_635)))
        (let ((tmp_646 (bvxor tmp_645 #b1)))
        (let ((tmp_647 (bvxor tmp_635 #b1)))
        (let ((tmp_648 (bvxor tmp_644 #b1)))
        (let ((tmp_649 (bvand tmp_648 tmp_647)))
        (let ((tmp_650 (bvxor tmp_649 #b1)))
        (let ((tmp_651 (bvand tmp_650 tmp_646)))
        (let ((tmp_652 (concat tmp_651 tmp_606)))
        (let ((tmp_653 (concat tmp_652 tmp_561)))
        (let ((tmp_654 (concat tmp_653 tmp_521)))
        (let ((tmp_655 (concat tmp_654 tmp_481)))
        (let ((tmp_656 (concat tmp_655 tmp_442)))
        (let ((tmp_657 (concat tmp_656 tmp_399)))
        (let ((tmp_658 (concat tmp_657 tmp_343)))
        (let ((tmp_659 (concat tmp_658 tmp_273)))
        (let ((tmp_660 (concat tmp_659 tmp_200)))
        (let ((tmp_661 (concat tmp_660 tmp_121)))
        (let ((tmp_662 (concat tmp_661 tmp_60)))
        (let ((tmp_663 (concat tmp_662 tmp_21)))
        (let ((tmp_664 (concat #b000000000 tmp_0)))
        (let ((tmp_665 (concat #b000000000 tmp)))
        (let ((tmp_666 (bvmul tmp_665 tmp_664)))
        (let ((tmp_667 (bvadd tmp_666 tmp_1)))
        (let ((tmp_668 (bvadd tmp_667 tmp_2)))
        (let ((tmp_669 (distinct tmp_668 tmp_663)))
        tmp_669))))))))))))))))))))))))))))))))))))))))))))))))))))))))))))))))))))))))))))))))))))))))))))))))))))))))))))))))))))))))))))))))))))))))))))))))))))))))))))))))))))))))))))))))))))))))))))))))))))))))))))))))))))))))))))))))))))))))))))))))))))))))))))))))))))))))))))))))))))))))))))))))))))))))))))))))))))))))))))))))))))))))))))))))))))))))))))))))))))))))))))))))))))))))))))))))))))))))))))))))))))))))))))))))))))))))))))))))))))))))))))))))))))))))))))))))))))))))))))))))))))))))))))))))))))))))))))))))))))))))))))))))))))))))))))))))))))))))))))))))))))))))))))))))))))))))))))))))))))))))))))))))))))))))))))))))))))))))))))))))))))))))))))))))))))))))))))
(check-sat)

(exit)